p edge 600 599
e 1 302
e 1 585
e 1 312
e 2 577
e 2 533
e 3 456
e 3 400
e 4 283
e 4 542
e 4 342
e 5 115
e 6 152
e 6 110
e 7 57
e 7 489
e 7 361
e 8 368
e 8 73
e 9 530
e 9 568
e 10 514
e 10 546
e 10 115
e 11 26
e 12 264
e 12 118
e 13 282
e 14 251
e 15 229
e 16 443
e 16 96
e 17 143
e 18 105
e 19 559
e 20 314
e 20 115
e 21 598
e 21 590
e 22 347
e 22 568
e 23 90
e 24 433
e 25 229
e 25 198
e 26 423
e 26 151
e 26 48
e 27 33
e 28 38
e 28 547
e 28 578
e 28 86
e 29 340
e 29 119
e 30 498
e 30 399
e 31 32
e 31 96
e 33 186
e 33 371
e 33 339
e 34 224
e 35 239
e 36 518
e 37 548
e 37 379
e 39 575
e 40 392
e 40 272
e 40 112
e 41 499
e 41 374
e 41 367
e 42 204
e 43 557
e 43 316
e 44 559
e 45 102
e 45 471
e 46 541
e 46 261
e 46 447
e 47 130
e 47 234
e 48 251
e 49 94
e 49 113
e 50 430
e 51 226
e 52 101
e 52 481
e 52 595
e 52 187
e 52 267
e 53 258
e 53 95
e 54 460
e 55 285
e 56 398
e 56 101
e 58 185
e 58 235
e 59 480
e 59 491
e 59 521
e 60 246
e 60 223
e 60 594
e 61 369
e 61 411
e 61 169
e 62 164
e 63 401
e 63 475
e 63 322
e 64 426
e 64 212
e 65 433
e 66 248
e 66 364
e 66 220
e 66 425
e 67 349
e 68 193
e 68 217
e 69 285
e 70 235
e 70 494
e 70 241
e 71 327
e 71 191
e 71 358
e 71 251
e 72 127
e 72 565
e 72 442
e 72 339
e 73 372
e 73 527
e 74 161
e 74 176
e 75 324
e 75 591
e 75 467
e 76 103
e 76 551
e 77 160
e 78 429
e 78 115
e 78 153
e 79 221
e 80 451
e 80 293
e 81 116
e 81 326
e 81 88
e 82 140
e 82 239
e 83 492
e 83 554
e 83 142
e 84 502
e 84 430
e 85 345
e 86 439
e 87 174
e 87 291
e 88 498
e 89 105
e 90 95
e 91 390
e 92 100
e 93 368
e 94 239
e 95 434
e 96 588
e 96 241
e 97 387
e 97 100
e 98 353
e 99 271
e 100 442
e 101 435
e 103 516
e 104 141
e 104 390
e 105 550
e 106 559
e 106 363
e 107 307
e 107 138
e 108 128
e 109 290
e 109 306
e 110 536
e 110 436
e 111 164
e 111 392
e 112 348
e 112 445
e 113 157
e 114 388
e 115 275
e 117 566
e 118 550
e 119 535
e 119 575
e 119 395
e 120 301
e 121 371
e 122 592
e 123 414
e 123 584
e 124 357
e 124 254
e 125 256
e 125 468
e 126 197
e 128 322
e 128 308
e 129 331
e 129 132
e 131 555
e 131 568
e 131 479
e 131 547
e 132 487
e 133 297
e 134 342
e 134 269
e 135 406
e 135 308
e 136 380
e 136 525
e 136 358
e 137 468
e 137 476
e 138 271
e 139 439
e 139 473
e 142 232
e 142 155
e 143 211
e 143 253
e 144 421
e 144 433
e 145 285
e 146 465
e 147 208
e 147 272
e 148 374
e 149 167
e 150 380
e 151 204
e 152 551
e 152 250
e 153 559
e 154 364
e 155 237
e 156 215
e 157 297
e 157 393
e 157 220
e 158 274
e 159 465
e 159 417
e 159 243
e 160 538
e 160 279
e 162 278
e 162 490
e 162 292
e 162 449
e 163 457
e 163 487
e 164 240
e 164 274
e 165 547
e 166 299
e 166 269
e 166 453
e 167 243
e 167 182
e 168 173
e 168 474
e 169 389
e 170 333
e 170 415
e 170 479
e 171 446
e 171 417
e 172 251
e 174 485
e 175 389
e 176 277
e 177 571
e 178 225
e 179 584
e 179 583
e 180 333
e 181 594
e 181 531
e 182 423
e 183 287
e 183 268
e 183 595
e 184 563
e 184 341
e 187 473
e 188 424
e 188 286
e 189 324
e 190 411
e 191 493
e 192 275
e 194 581
e 195 386
e 195 408
e 195 466
e 195 576
e 195 261
e 196 323
e 197 407
e 197 581
e 197 431
e 198 409
e 199 218
e 200 593
e 200 394
e 201 512
e 202 579
e 202 373
e 203 406
e 204 296
e 204 231
e 205 228
e 205 472
e 206 350
e 206 320
e 207 470
e 209 352
e 209 271
e 210 509
e 210 322
e 212 431
e 213 575
e 214 552
e 215 270
e 216 289
e 216 367
e 216 294
e 216 441
e 217 346
e 217 336
e 217 600
e 218 599
e 219 452
e 219 521
e 219 453
e 219 524
e 220 377
e 221 439
e 222 598
e 223 304
e 224 409
e 225 230
e 225 436
e 225 500
e 225 280
e 226 236
e 226 560
e 226 500
e 227 371
e 228 482
e 229 234
e 231 362
e 231 318
e 233 522
e 234 313
e 235 370
e 236 366
e 237 393
e 238 506
e 241 293
e 241 279
e 242 433
e 243 444
e 244 375
e 244 286
e 245 510
e 245 497
e 245 282
e 246 315
e 247 323
e 247 581
e 249 384
e 249 485
e 250 410
e 251 487
e 252 395
e 253 496
e 253 593
e 254 266
e 254 284
e 255 405
e 255 422
e 255 274
e 256 428
e 256 558
e 256 571
e 257 391
e 258 262
e 258 501
e 259 480
e 260 542
e 263 567
e 265 274
e 266 461
e 267 389
e 268 508
e 268 569
e 270 285
e 270 513
e 271 518
e 272 334
e 272 458
e 272 511
e 272 519
e 272 570
e 273 349
e 276 301
e 277 446
e 279 344
e 280 447
e 281 465
e 282 451
e 284 434
e 284 534
e 286 337
e 286 566
e 286 360
e 288 520
e 289 539
e 291 528
e 292 527
e 293 460
e 294 312
e 295 520
e 298 383
e 300 553
e 301 544
e 303 413
e 303 568
e 304 471
e 305 332
e 306 361
e 306 400
e 307 532
e 308 520
e 309 583
e 309 416
e 310 529
e 310 542
e 311 501
e 313 359
e 315 321
e 316 374
e 317 520
e 317 419
e 318 589
e 319 372
e 320 409
e 322 354
e 322 580
e 324 506
e 324 469
e 325 573
e 325 454
e 328 344
e 328 554
e 329 546
e 330 586
e 330 477
e 332 563
e 335 419
e 335 413
e 336 389
e 337 409
e 338 541
e 339 418
e 339 556
e 340 550
e 341 422
e 343 434
e 344 528
e 345 399
e 345 415
e 347 365
e 348 403
e 349 553
e 351 383
e 352 540
e 353 449
e 354 445
e 355 530
e 356 463
e 359 472
e 360 522
e 363 388
e 363 574
e 373 442
e 376 498
e 378 553
e 379 526
e 379 597
e 381 585
e 382 591
e 383 485
e 385 417
e 389 582
e 390 590
e 390 489
e 391 434
e 394 507
e 395 591
e 396 421
e 397 479
e 399 431
e 400 430
e 402 413
e 404 599
e 404 578
e 406 512
e 410 522
e 410 507
e 411 455
e 412 550
e 414 495
e 416 562
e 417 561
e 418 425
e 420 460
e 425 467
e 426 478
e 427 474
e 430 552
e 432 454
e 433 564
e 434 462
e 437 517
e 437 562
e 438 545
e 438 575
e 440 554
e 441 553
e 441 594
e 447 572
e 447 498
e 448 498
e 449 557
e 450 493
e 453 477
e 453 587
e 454 517
e 457 562
e 459 466
e 461 487
e 463 570
e 464 499
e 469 513
e 470 515
e 470 577
e 474 556
e 476 531
e 476 544
e 478 556
e 482 564
e 483 599
e 484 489
e 485 524
e 486 515
e 488 544
e 497 534
e 501 518
e 503 598
e 504 579
e 505 536
e 519 523
e 524 574
e 533 552
e 537 567
e 543 565
e 544 573
e 549 566
e 550 567
e 552 560
e 571 596
e 590 592
e 597 599
